     Program PWSCF v.7.4 starts on 25Oct2025 at 15:35:27

     Reading input from TiFe_relaxed5.in

     Current dimensions of program PWSCF are:
     Max number of different atomic species (ntypx) = 10
     Max number of k-points (npk) =  40000
     Max angular momentum in pseudopotentials (lmaxx) =  4
     file Fe.pbe-spn-kjpaw_psl.0.2.1.UPF: wavefunction(s)  3D renormalized

     IMPORTANT: XC functional enforced from input :
     Exchange-correlation= PBE
                           (   1   4   3   4   0   0   0)
     Any further DFT definition will be discarded
     Please, verify this is what you really want

     Message from routine setup:
     using ibrav=0 with symmetry is DISCOURAGED, use correct ibrav instead

     R & G space division:  proc/nbgrp/npool/nimage =       8
     Subspace diagonalization in iterative solution of the eigenvalue problem:
     a serial algorithm will be used

     Using Slab Decomposition

     bravais-lattice index     =            0
     lattice parameter (alat)  =       5.5533  a.u.
     unit-cell volume          =     171.2590 (a.u.)^3
     number of atoms/cell      =            2
     number of atomic types    =            2
     number of electrons       =        28.00
     number of Kohn-Sham states=           18
     kinetic-energy cutoff     =     124.0000  Ry
     charge density cutoff     =    1736.0000  Ry
     scf convergence threshold =      1.0E-08
     mixing beta               =       0.7000
     number of iterations used =            8  plain     mixing
     energy convergence thresh.=      1.0E-04
     force convergence thresh. =      1.0E-03
     press convergence thresh. =      5.0E-01
     Exchange-correlation= PBE
                           (   1   4   3   4   0   0   0)
     nstep                     =           50

     celldm(1)=   5.553300  celldm(2)=   0.000000  celldm(3)=   0.000000
     celldm(4)=   0.000000  celldm(5)=   0.000000  celldm(6)=   0.000000

     crystal axes: (cart. coord. in units of alat)
               a(1) = (   1.000000   0.000000   0.000000 )
               a(2) = (   0.000000   1.000000   0.000000 )
               a(3) = (   0.000000   0.000000   1.000000 )

     reciprocal axes: (cart. coord. in units 2 pi/alat)
               b(1) = (  1.000000  0.000000  0.000000 )
               b(2) = (  0.000000  1.000000  0.000000 )
               b(3) = (  0.000000  0.000000  1.000000 )

     PseudoPot. # 1 for Fe read from file:
     ../../pseudos/Fe.pbe-spn-kjpaw_psl.0.2.1.UPF
     MD5 check sum: e86618425769142926afa95317d90200
     Pseudo is Projector augmented-wave + core cor, Zval = 16.0
     Generated using "atomic" code by A. Dal Corso  v.5.0.99 svn rev. 10869
     Shape of augmentation charge: PSQ
     Using radial grid of 1191 points,  6 beta functions with:
                l(1) =   0
                l(2) =   0
                l(3) =   1
                l(4) =   1
                l(5) =   2
                l(6) =   2
     Q(r) pseudized with 0 coefficients

     PseudoPot. # 2 for Ti read from file:
     ../../pseudos/ti_pbe_v1.4.uspp.F.UPF
     MD5 check sum: 88a00a6731bd790ddea75d31a80cb452
     Pseudo is Ultrasoft + core correction, Zval = 12.0
     Generated by new atomic code, or converted to UPF format
     Using radial grid of  851 points,  6 beta functions with:
                l(1) =   0
                l(2) =   0
                l(3) =   1
                l(4) =   1
                l(5) =   2
                l(6) =   2
     Q(r) pseudized with  6 coefficients,  rinner =    1.000   1.000   1.000
                                                       1.000   1.000

     atomic species   valence    mass     pseudopotential
     Fe               16.00    55.84500     Fe( 1.00)
     Ti               12.00    47.86700     Ti( 1.00)

     48 Sym. Ops., with inversion, found

   Cartesian axes

     site n.     atom                  positions (alat units)
         1        Fe     tau(   1) = (   0.5000000   0.5000000   0.5000000  )
         2        Ti     tau(   2) = (   0.0000000   0.0000000   0.0000000  )

     number of k points=    56  Marzari-Vanderbilt smearing, width (Ry)=  0.0050
                       cart. coord. in units 2pi/alat
        k(    1) = (   0.0000000   0.0000000   0.0000000), wk =   0.0015026
        k(    2) = (   0.0000000   0.0000000   0.0909091), wk =   0.0090158
        k(    3) = (   0.0000000   0.0000000   0.1818182), wk =   0.0090158
        k(    4) = (   0.0000000   0.0000000   0.2727273), wk =   0.0090158
        k(    5) = (   0.0000000   0.0000000   0.3636364), wk =   0.0090158
        k(    6) = (   0.0000000   0.0000000   0.4545455), wk =   0.0090158
        k(    7) = (   0.0000000   0.0909091   0.0909091), wk =   0.0180316
        k(    8) = (   0.0000000   0.0909091   0.1818182), wk =   0.0360631
        k(    9) = (   0.0000000   0.0909091   0.2727273), wk =   0.0360631
        k(   10) = (   0.0000000   0.0909091   0.3636364), wk =   0.0360631
        k(   11) = (   0.0000000   0.0909091   0.4545455), wk =   0.0360631
        k(   12) = (   0.0000000   0.1818182   0.1818182), wk =   0.0180316
        k(   13) = (   0.0000000   0.1818182   0.2727273), wk =   0.0360631
        k(   14) = (   0.0000000   0.1818182   0.3636364), wk =   0.0360631
        k(   15) = (   0.0000000   0.1818182   0.4545455), wk =   0.0360631
        k(   16) = (   0.0000000   0.2727273   0.2727273), wk =   0.0180316
        k(   17) = (   0.0000000   0.2727273   0.3636364), wk =   0.0360631
        k(   18) = (   0.0000000   0.2727273   0.4545455), wk =   0.0360631
        k(   19) = (   0.0000000   0.3636364   0.3636364), wk =   0.0180316
        k(   20) = (   0.0000000   0.3636364   0.4545455), wk =   0.0360631
        k(   21) = (   0.0000000   0.4545455   0.4545455), wk =   0.0180316
        k(   22) = (   0.0909091   0.0909091   0.0909091), wk =   0.0120210
        k(   23) = (   0.0909091   0.0909091   0.1818182), wk =   0.0360631
        k(   24) = (   0.0909091   0.0909091   0.2727273), wk =   0.0360631
        k(   25) = (   0.0909091   0.0909091   0.3636364), wk =   0.0360631
        k(   26) = (   0.0909091   0.0909091   0.4545455), wk =   0.0360631
        k(   27) = (   0.0909091   0.1818182   0.1818182), wk =   0.0360631
        k(   28) = (   0.0909091   0.1818182   0.2727273), wk =   0.0721262
        k(   29) = (   0.0909091   0.1818182   0.3636364), wk =   0.0721262
        k(   30) = (   0.0909091   0.1818182   0.4545455), wk =   0.0721262
        k(   31) = (   0.0909091   0.2727273   0.2727273), wk =   0.0360631
        k(   32) = (   0.0909091   0.2727273   0.3636364), wk =   0.0721262
        k(   33) = (   0.0909091   0.2727273   0.4545455), wk =   0.0721262
        k(   34) = (   0.0909091   0.3636364   0.3636364), wk =   0.0360631
        k(   35) = (   0.0909091   0.3636364   0.4545455), wk =   0.0721262
        k(   36) = (   0.0909091   0.4545455   0.4545455), wk =   0.0360631
        k(   37) = (   0.1818182   0.1818182   0.1818182), wk =   0.0120210
        k(   38) = (   0.1818182   0.1818182   0.2727273), wk =   0.0360631
        k(   39) = (   0.1818182   0.1818182   0.3636364), wk =   0.0360631
        k(   40) = (   0.1818182   0.1818182   0.4545455), wk =   0.0360631
        k(   41) = (   0.1818182   0.2727273   0.2727273), wk =   0.0360631
        k(   42) = (   0.1818182   0.2727273   0.3636364), wk =   0.0721262
        k(   43) = (   0.1818182   0.2727273   0.4545455), wk =   0.0721262
        k(   44) = (   0.1818182   0.3636364   0.3636364), wk =   0.0360631
        k(   45) = (   0.1818182   0.3636364   0.4545455), wk =   0.0721262
        k(   46) = (   0.1818182   0.4545455   0.4545455), wk =   0.0360631
        k(   47) = (   0.2727273   0.2727273   0.2727273), wk =   0.0120210
        k(   48) = (   0.2727273   0.2727273   0.3636364), wk =   0.0360631
        k(   49) = (   0.2727273   0.2727273   0.4545455), wk =   0.0360631
        k(   50) = (   0.2727273   0.3636364   0.3636364), wk =   0.0360631
        k(   51) = (   0.2727273   0.3636364   0.4545455), wk =   0.0721262
        k(   52) = (   0.2727273   0.4545455   0.4545455), wk =   0.0360631
        k(   53) = (   0.3636364   0.3636364   0.3636364), wk =   0.0120210
        k(   54) = (   0.3636364   0.3636364   0.4545455), wk =   0.0360631
        k(   55) = (   0.3636364   0.4545455   0.4545455), wk =   0.0360631
        k(   56) = (   0.4545455   0.4545455   0.4545455), wk =   0.0120210

     Check: negative core charge=   -0.000002

     Initial potential from superposition of free atoms

     starting charge      26.9995, renormalised to      28.0000

     negative rho (up, down):  1.347E-03 0.000E+00
     Starting wfcs are   23 randomized atomic wfcs
     Checking if some PAW data can be deallocated...

     Self-consistent Calculation

     iteration #  1     ecut=   124.00 Ry     beta= 0.70
     Davidson diagonalization with overlap
     ethr =  1.00E-02,  avg # of iterations =  2.1

     negative rho (up, down):  7.937E-05 0.000E+00

     total energy              =    -434.89047275 Ry
     estimated scf accuracy    <      17.46535633 Ry

[...]

     End of self-consistent calculation

          k = 0.0000 0.0000 0.0000 (  3911 PWs)   bands (ev):

   -69.2103 -39.1517 -35.2713 -35.2713 -35.2713 -15.2460 -15.2460 -15.2460
    10.1528  13.8639  13.8639  16.6568  16.6568  16.6568  18.9983  18.9983
    20.9366  20.9366

[...]

     the Fermi energy is    17.5936 ev

!    total energy              =    -448.58655249 Ry
     estimated scf accuracy    <          4.6E-09 Ry
     smearing contrib. (-TS)   =       0.00005040 Ry
     internal energy E=F+TS    =    -448.58660289 Ry

     The total energy is F=E-TS. E is the sum of the following terms:
     one-electron contribution =    -151.34258882 Ry
     hartree contribution      =      91.61754586 Ry
     xc contribution           =     -52.88701341 Ry
     ewald contribution        =    -259.82070277 Ry
     one-center paw contrib.   =     -76.15384375 Ry

     convergence has been achieved in  36 iterations

[...]

     Forces acting on atoms (cartesian axes, Ry/au):

     atom    1 type  1   force =     0.00000000    0.00000000    0.00000000
     atom    2 type  2   force =     0.00000000    0.00000000    0.00000000

     Total force =     0.000000     Total SCF correction =     0.000000

     Computing stress (Cartesian axis) and pressure

     negative rho (up, down):  9.642E-04 0.000E+00
          total   stress  (Ry/bohr**3)                   (kbar)     P=       31.33
   0.00021296   0.00000000   0.00000000           31.33        0.00        0.00
   0.00000000   0.00021296   0.00000000            0.00       31.33        0.00
   0.00000000   0.00000000   0.00021296            0.00        0.00       31.33

     BFGS Geometry Optimization
     Energy error            =      2.0E-03 Ry
     Gradient error          =      0.0E+00 Ry/Bohr
     Cell gradient error     =      5.8E+01 kbar

     number of scf cycles    =   1
     number of bfgs steps    =   0

     enthalpy           new  =    -448.4826798158 Ry

     new trust radius        =       0.0257517775 bohr
     new conv_thr            =       0.0000000100 Ry

     new unit-cell volume =    166.25356 a.u.^3 (    24.63624 Ang^3 )
     density =      6.99043 g/cm^3

CELL_PARAMETERS (alat=  5.55330037)
   0.990161011   0.000000000   0.000000000
   0.000000000   0.990161011   0.000000000
   0.000000000   0.000000000   0.990161011

ATOMIC_POSITIONS (crystal)
Fe               0.5000000000        0.5000000000        0.5000000000
Ti               0.0000000000        0.0000000000        0.0000000000

     Writing config-only to output data dir ./TiFe.save/ :
     XML data file
     NEW-OLD atomic charge density approx. for the potential
     New effective cutoffs (rho, wfc): 1770.54  126.47

[...]

     Threshold (ethr) on eigenvalues was too large:
     Diagonalizing with lowered threshold

     Davidson diagonalization with overlap
     ethr =  9.41E-08,  avg # of iterations =  2.9

[...]

     Energy error            =      8.8E-04 Ry
     Gradient error          =      0.0E+00 Ry/Bohr
     Cell gradient error     =      7.7E+00 kbar

     number of scf cycles    =   2
     number of bfgs steps    =   1

     enthalpy           old  =    -448.4826798158 Ry
     enthalpy           new  =    -448.4835549493 Ry

     CASE: enthalpy          _new < enthalpy          _old

     new trust radius        =       0.0029553177 bohr
     new conv_thr            =            1.0E-10 Ry

     new unit-cell volume =    166.82580 a.u.^3 (    24.72103 Ang^3 )
     density =      6.96645 g/cm^3

[...]

ATOMIC_POSITIONS (crystal)
Fe               0.5000000000        0.5000000000        0.5000000000
Ti               0.0000000000        0.0000000000        0.0000000000

     Writing config-only to output data dir ./TiFe.save/ :
     XML data file
     NEW-OLD atomic charge density approx. for the potential
     New effective cutoffs (rho, wfc): 1766.49  126.18

[...]

     Threshold (ethr) on eigenvalues was too large:
     Diagonalizing with lowered threshold

     Davidson diagonalization with overlap
     ethr =  3.51E-09,  avg # of iterations =  6.5

[...]

     Energy error            =      1.5E-05 Ry
     Gradient error          =      0.0E+00 Ry/Bohr
     Cell gradient error     =      1.6E-01 kbar

     bfgs converged in   3 scf cycles and   2 bfgs steps
     (criteria: energy <  1.0E-04 Ry, force <  1.0E-03 Ry/Bohr, cell <  5.0E-01 kbar)

     End of BFGS Geometry Optimization

     Final enthalpy           =    -448.4835697719 Ry

     File ./TiFe.bfgs deleted, as requested
Begin final coordinates
     new unit-cell volume =    166.82580 a.u.^3 (    24.72103 Ang^3 )
     density =      6.96645 g/cm^3

CELL_PARAMETERS (alat=  5.55330037)
   0.991295746   0.000000000   0.000000000
   0.000000000   0.991295746   0.000000000
   0.000000000   0.000000000   0.991295746

ATOMIC_POSITIONS (crystal)
Fe               0.5000000000        0.5000000000        0.5000000000
Ti               0.0000000000        0.0000000000        0.0000000000
End final coordinates

     Writing config-only to output data dir ./TiFe.save/ :
     XML data file

     Final scf calculation at the relaxed structure.
     The G-vectors are recalculated for the final unit cell
     Results may differ from those at the preceding step.

     Using Slab Decomposition

     bravais-lattice index     =            0
     lattice parameter (alat)  =       5.5533  a.u.
     unit-cell volume          =     166.8258 (a.u.)^3
     number of atoms/cell      =            2
     number of atomic types    =            2
     number of electrons       =        28.00
     number of Kohn-Sham states=           18
     kinetic-energy cutoff     =     124.0000  Ry
     charge density cutoff     =    1736.0000  Ry
     scf convergence threshold =      1.0E-10
     mixing beta               =       0.7000
     number of iterations used =            8  plain     mixing
     press convergence thresh. =      5.0E-01
     Exchange-correlation= PBE
                           (   1   4   3   4   0   0   0)

     celldm(1)=   5.553300  celldm(2)=   0.000000  celldm(3)=   0.000000
     celldm(4)=   0.000000  celldm(5)=   0.000000  celldm(6)=   0.000000

     crystal axes: (cart. coord. in units of alat)
               a(1) = (   0.991296   0.000000   0.000000 )
               a(2) = (   0.000000   0.991296   0.000000 )
               a(3) = (   0.000000   0.000000   0.991296 )

     reciprocal axes: (cart. coord. in units 2 pi/alat)
               b(1) = (  1.008781  0.000000  0.000000 )
               b(2) = (  0.000000  1.008781  0.000000 )
               b(3) = (  0.000000  0.000000  1.008781 )

     PseudoPot. # 1 for Fe read from file:
     ../../pseudos/Fe.pbe-spn-kjpaw_psl.0.2.1.UPF
     MD5 check sum: e86618425769142926afa95317d90200
     Pseudo is Projector augmented-wave + core cor, Zval = 16.0
     Generated using "atomic" code by A. Dal Corso  v.5.0.99 svn rev. 10869
     Shape of augmentation charge: PSQ
     Using radial grid of 1191 points,  6 beta functions with:
                l(1) =   0
                l(2) =   0
                l(3) =   1
                l(4) =   1
                l(5) =   2
                l(6) =   2
     Q(r) pseudized with 0 coefficients

     PseudoPot. # 2 for Ti read from file:
     ../../pseudos/ti_pbe_v1.4.uspp.F.UPF
     MD5 check sum: 88a00a6731bd790ddea75d31a80cb452
     Pseudo is Ultrasoft + core correction, Zval = 12.0
     Generated by new atomic code, or converted to UPF format
     Using radial grid of  851 points,  6 beta functions with:
                l(1) =   0
                l(2) =   0
                l(3) =   1
                l(4) =   1
                l(5) =   2
                l(6) =   2
     Q(r) pseudized with  6 coefficients,  rinner =    1.000   1.000   1.000
                                                       1.000   1.000

     atomic species   valence    mass     pseudopotential
     Fe               16.00    55.84500     Fe( 1.00)
     Ti               12.00    47.86700     Ti( 1.00)

     48 Sym. Ops., with inversion, found

   Cartesian axes

     site n.     atom                  positions (alat units)
         1        Fe     tau(   1) = (   0.4956479   0.4956479   0.4956479  )
         2        Ti     tau(   2) = (   0.0000000   0.0000000   0.0000000  )

     number of k points=    56  Marzari-Vanderbilt smearing, width (Ry)=  0.0050
                       cart. coord. in units 2pi/alat
        k(    1) = (   0.0000000   0.0000000   0.0000000), wk =   0.0015026
        k(    2) = (   0.0000000   0.0000000   0.0917073), wk =   0.0090158
        k(    3) = (   0.0000000   0.0000000   0.1834147), wk =   0.0090158
        k(    4) = (   0.0000000   0.0000000   0.2751220), wk =   0.0090158
        k(    5) = (   0.0000000   0.0000000   0.3668293), wk =   0.0090158
        k(    6) = (   0.0000000   0.0000000   0.4585367), wk =   0.0090158
        k(    7) = (   0.0000000   0.0917073   0.0917073), wk =   0.0180316
        k(    8) = (   0.0000000   0.0917073   0.1834147), wk =   0.0360631
        k(    9) = (   0.0000000   0.0917073   0.2751220), wk =   0.0360631
        k(   10) = (   0.0000000   0.0917073   0.3668293), wk =   0.0360631
        k(   11) = (   0.0000000   0.0917073   0.4585367), wk =   0.0360631
        k(   12) = (   0.0000000   0.1834147   0.1834147), wk =   0.0180316
        k(   13) = (   0.0000000   0.1834147   0.2751220), wk =   0.0360631
        k(   14) = (   0.0000000   0.1834147   0.3668293), wk =   0.0360631
        k(   15) = (   0.0000000   0.1834147   0.4585367), wk =   0.0360631
        k(   16) = (   0.0000000   0.2751220   0.2751220), wk =   0.0180316
        k(   17) = (   0.0000000   0.2751220   0.3668293), wk =   0.0360631
        k(   18) = (   0.0000000   0.2751220   0.4585367), wk =   0.0360631
        k(   19) = (   0.0000000   0.3668293   0.3668293), wk =   0.0180316
        k(   20) = (   0.0000000   0.3668293   0.4585367), wk =   0.0360631
        k(   21) = (   0.0000000   0.4585367   0.4585367), wk =   0.0180316
        k(   22) = (   0.0917073   0.0917073   0.0917073), wk =   0.0120210
        k(   23) = (   0.0917073   0.0917073   0.1834147), wk =   0.0360631
        k(   24) = (   0.0917073   0.0917073   0.2751220), wk =   0.0360631
        k(   25) = (   0.0917073   0.0917073   0.3668293), wk =   0.0360631
        k(   26) = (   0.0917073   0.0917073   0.4585367), wk =   0.0360631
        k(   27) = (   0.0917073   0.1834147   0.1834147), wk =   0.0360631
        k(   28) = (   0.0917073   0.1834147   0.2751220), wk =   0.0721262
        k(   29) = (   0.0917073   0.1834147   0.3668293), wk =   0.0721262
        k(   30) = (   0.0917073   0.1834147   0.4585367), wk =   0.0721262
        k(   31) = (   0.0917073   0.2751220   0.2751220), wk =   0.0360631
        k(   32) = (   0.0917073   0.2751220   0.3668293), wk =   0.0721262
        k(   33) = (   0.0917073   0.2751220   0.4585367), wk =   0.0721262
        k(   34) = (   0.0917073   0.3668293   0.3668293), wk =   0.0360631
        k(   35) = (   0.0917073   0.3668293   0.4585367), wk =   0.0721262
        k(   36) = (   0.0917073   0.4585367   0.4585367), wk =   0.0360631
        k(   37) = (   0.1834147   0.1834147   0.1834147), wk =   0.0120210
        k(   38) = (   0.1834147   0.1834147   0.2751220), wk =   0.0360631
        k(   39) = (   0.1834147   0.1834147   0.3668293), wk =   0.0360631
        k(   40) = (   0.1834147   0.1834147   0.4585367), wk =   0.0360631
        k(   41) = (   0.1834147   0.2751220   0.2751220), wk =   0.0360631
        k(   42) = (   0.1834147   0.2751220   0.3668293), wk =   0.0721262
        k(   43) = (   0.1834147   0.2751220   0.4585367), wk =   0.0721262
        k(   44) = (   0.1834147   0.3668293   0.3668293), wk =   0.0360631
        k(   45) = (   0.1834147   0.3668293   0.4585367), wk =   0.0721262
        k(   46) = (   0.1834147   0.4585367   0.4585367), wk =   0.0360631
        k(   47) = (   0.2751220   0.2751220   0.2751220), wk =   0.0120210
        k(   48) = (   0.2751220   0.2751220   0.3668293), wk =   0.0360631
        k(   49) = (   0.2751220   0.2751220   0.4585367), wk =   0.0360631
        k(   50) = (   0.2751220   0.3668293   0.3668293), wk =   0.0360631
        k(   51) = (   0.2751220   0.3668293   0.4585367), wk =   0.0721262
        k(   52) = (   0.2751220   0.4585367   0.4585367), wk =   0.0360631
        k(   53) = (   0.3668293   0.3668293   0.3668293), wk =   0.0120210
        k(   54) = (   0.3668293   0.3668293   0.4585367), wk =   0.0360631
        k(   55) = (   0.3668293   0.4585367   0.4585367), wk =   0.0360631
        k(   56) = (   0.4585367   0.4585367   0.4585367), wk =   0.0120210

     Check: negative core charge=   -0.000002

     Initial potential from superposition of free atoms

     starting charge      26.9995, renormalised to      28.0000

     negative rho (up, down):  1.335E-03 0.000E+00
     Starting wfcs are   23 randomized atomic wfcs
     Checking if some PAW data can be deallocated...

     Self-consistent Calculation

     iteration #  1     ecut=   124.00 Ry     beta= 0.70
     Davidson diagonalization with overlap
     c_bands:  1 eigenvalues not converged
     c_bands:  1 eigenvalues not converged
     c_bands:  1 eigenvalues not converged
     c_bands:  1 eigenvalues not converged
     c_bands:  1 eigenvalues not converged
     ethr =  1.00E-06,  avg # of iterations = 16.1

[...]

     total energy              =    -448.58470812 Ry
     estimated scf accuracy    <          2.7E-09 Ry

     iteration # 32     ecut=   124.00 Ry     beta= 0.70
     Davidson diagonalization with overlap
     ethr =  9.73E-12,  avg # of iterations =  2.0

[...]

     End of self-consistent calculation

[...]

          k = 0.4585 0.4585 0.4585 (  3882 PWs)   bands (ev):

   -68.6739 -38.4345 -34.7878 -34.7877 -34.7877 -14.9339 -14.9339 -14.9334
    15.8065  15.9602  15.9602  16.2648  16.2648  16.2987  18.4112  18.4112
    21.8204  21.8204

     the Fermi energy is    18.1582 ev

!    total energy              =    -448.58470812 Ry
     estimated scf accuracy    <          6.5E-11 Ry
     smearing contrib. (-TS)   =       0.00002536 Ry
     internal energy E=F+TS    =    -448.58473349 Ry

     The total energy is F=E-TS. E is the sum of the following terms:
     one-electron contribution =    -147.82980080 Ry
     hartree contribution      =      90.43554576 Ry
     xc contribution           =     -52.93394890 Ry
     ewald contribution        =    -262.10210600 Ry
     one-center paw contrib.   =     -76.15442354 Ry

     convergence has been achieved in  32 iterations

     negative rho (up, down):  9.577E-04 0.000E+00

     Forces acting on atoms (cartesian axes, Ry/au):

     atom    1 type  1   force =     0.00000000    0.00000000    0.00000000
     atom    2 type  2   force =     0.00000000    0.00000000    0.00000000

     Total force =     0.000000     Total SCF correction =     0.000000

     Computing stress (Cartesian axis) and pressure

     negative rho (up, down):  9.577E-04 0.000E+00
          total   stress  (Ry/bohr**3)                   (kbar)     P=       88.90
   0.00060432   0.00000000   0.00000000           88.90        0.00        0.00
   0.00000000   0.00060432   0.00000000            0.00       88.90        0.00
   0.00000000   0.00000000   0.00060432            0.00        0.00       88.90

     Writing all to output data dir ./TiFe.save/ :
     XML data file, charge density, pseudopotentials, collected wavefunctions

     General routines

     Parallel routines

   This run was terminated on:  15:37: 4  25Oct2025

   JOB DONE.